; polyv 20220316 formula for checking non-redundancy of inequality 1 after eliminating variables 1 2 6 7 8 9 10 11 12 14 15 16 17 18 19 20 21 22 23 24 25 26 27 28 29 30 31 32 33 34 35 36 37 38 39 40 41 42 43 44 45 46 47 48 49 50 51 52 53 54 55 56 57 58 59 60, using file mit71-61-checkpred1.ine
; invocation was: ./polyv mit71-61-checkpred1.ine
(set-info :smt-lib-version 2.6)
(set-logic LRA)
(set-info :source |
Generated by: David Avis, Charles Jordan
Generated on: 2023-03-26
Generator: polyv 20220316
Application: Checking whether removal of an inequality changes a projection
Target solver: z3, CVC4

A polyhedron can be described by an H-representation (list of inequalities)
or V-representation (list of vertices and rays).  These instances search for
a point that is contained in exactly one of two given representations, i.e. 
determining that the given representations define different polyhedra.  A 
representation may contain a projection, in which case we are interested in
the projection of the polyhedron.  The generator (polyv) is a to-be-released
update of checkpred (included in lrslib 7.2) with new features.  Filenames
correspond to the polyhedron in question, given representations and whether
something is missing: for example mithv-miss1v.smt2 is produced by H- and
V-representations for mit.ine, but the V-representation is missing one
vertex.
|)
(set-info :license "https://creativecommons.org/licenses/by/4.0/")
(set-info :category "industrial")
(set-info :status unsat)

(declare-const x_1 Real)
(declare-const x_2 Real)
(declare-const x_3 Real)
(declare-const x_4 Real)
(declare-const x_5 Real)
(declare-const x_6 Real)
(declare-const x_7 Real)
(declare-const x_8 Real)
(declare-const x_9 Real)
(declare-const x_10 Real)
(declare-const x_11 Real)
(declare-const x_12 Real)
(declare-const x_13 Real)
(declare-const x_14 Real)
(declare-const x_15 Real)
(declare-const x_16 Real)
(declare-const x_17 Real)
(declare-const x_18 Real)
(declare-const x_19 Real)
(declare-const x_20 Real)
(declare-const x_21 Real)
(declare-const x_22 Real)
(declare-const x_23 Real)
(declare-const x_24 Real)
(declare-const x_25 Real)
(declare-const x_26 Real)
(declare-const x_27 Real)
(declare-const x_28 Real)
(declare-const x_29 Real)
(declare-const x_30 Real)
(declare-const x_31 Real)
(declare-const x_32 Real)
(declare-const x_33 Real)
(declare-const x_34 Real)
(declare-const x_35 Real)
(declare-const x_36 Real)
(declare-const x_37 Real)
(declare-const x_38 Real)
(declare-const x_39 Real)
(declare-const x_40 Real)
(declare-const x_41 Real)
(declare-const x_42 Real)
(declare-const x_43 Real)
(declare-const x_44 Real)
(declare-const x_45 Real)
(declare-const x_46 Real)
(declare-const x_47 Real)
(declare-const x_48 Real)
(declare-const x_49 Real)
(declare-const x_50 Real)
(declare-const x_51 Real)
(declare-const x_52 Real)
(declare-const x_53 Real)
(declare-const x_54 Real)
(declare-const x_55 Real)
(declare-const x_56 Real)
(declare-const x_57 Real)
(declare-const x_58 Real)
(declare-const x_59 Real)
(declare-const x_60 Real)

(assert (and
      (and
         (<= 0
          (+  0 (*  2 x_9) (* (-  6) x_10) (*  6 x_11) (* (-  2) x_12) (* (-  2) x_28) (*  6 x_29) (* (-  6) x_30) (*  2 x_31)))
         (<= 0
          (+  0 (*  2 x_9) (* (-  2) x_10) (* (-  2) x_11) (*  2 x_12) (* (-  2) x_28) (*  2 x_29) (*  2 x_30) (* (-  2) x_31)))
         (<= 0
          (+  0 (*  2 x_9) (*  2 x_10) (* (-  2) x_11) (* (-  2) x_12) (* (-  2) x_28) (* (-  2) x_29) (*  2 x_30) (*  2 x_31)))
         (<= 0
          (+  0 (*  2 x_9) (*  6 x_10) (*  6 x_11) (*  2 x_12) (* (-  2) x_28) (* (-  6) x_29) (* (-  6) x_30) (* (-  2) x_31)))
         (<= 0
          (+  0 (*  4 x_6) (* (-  8) x_7) (*  4 x_8) (* (-  8) x_9) (*  16 x_10) (* (-  8) x_11) (*  4 x_28) (* (-  8) x_29) (*  4 x_30)))
         (<= 0
          (+  0 (*  4 x_6) (* (-  4) x_8) (* (-  8) x_9) (*  8 x_11) (*  4 x_28) (* (-  4) x_30)))
         (<= 0
          (+  0 (*  4 x_6) (*  8 x_7) (*  4 x_8) (* (-  8) x_9) (* (-  16) x_10) (* (-  8) x_11) (*  4 x_28) (*  8 x_29) (*  4 x_30)))
         (<= 0
          (+  0 (*  8 x_1) (* (-  8) x_2) (* (-  24) x_6) (*  24 x_7) (*  24 x_9) (* (-  24) x_10) (* (-  8) x_28) (*  8 x_29)))
         (<= 0
          (+  0 (*  8 x_1) (*  8 x_2) (* (-  24) x_6) (* (-  24) x_7) (*  24 x_9) (*  24 x_10) (* (-  8) x_28) (* (-  8) x_29)))
         (<= 0
          (+  16 (* (-  64) x_1) (*  96 x_6) (* (-  64) x_9) (*  16 x_28)))
         (<= 0
          (+  0 x_51 (* (-  6) x_52) (*  12 x_53) (*  3 x_54) (* (-  12) x_55) (* (-  8) x_56) (*  3 x_57) (*  12 x_58) (* (-  6) x_59) x_60))
         (<= 0
          (+  0 x_51 (* (-  4) x_52) (*  4 x_53) x_54 (* (-  1) x_57) (* (-  4) x_58) (*  4 x_59) (* (-  1) x_60)))
         (<= 0
          (+  0 x_51 (* (-  2) x_52) (* (-  1) x_54) (*  4 x_55) (* (-  1) x_57) (* (-  2) x_59) x_60))
         (<= 0
          (+  0 x_51 (* (-  2) x_52) (* (-  4) x_53) (*  3 x_54) (* (-  4) x_55) (*  8 x_56) (*  3 x_57) (* (-  4) x_58) (* (-  2) x_59) x_60))
         (<= 0
          (+  0 x_51 (* (-  4) x_53) x_54 (* (-  1) x_57) (*  4 x_58) (* (-  1) x_60)))
         (<= 0
          (+  0 x_51 (* (-  3) x_54) (*  3 x_57) (* (-  1) x_60)))
         (<= 0
          (+  0 x_51 (*  2 x_52) (* (-  4) x_53) (*  3 x_54) (*  4 x_55) (* (-  8) x_56) (*  3 x_57) (* (-  4) x_58) (*  2 x_59) x_60))
         (<= 0
          (+  0 x_51 (*  2 x_52) (* (-  1) x_54) (* (-  4) x_55) (* (-  1) x_57) (*  2 x_59) x_60))
         (<= 0
          (+  0 x_51 (*  4 x_52) (*  4 x_53) x_54 (* (-  1) x_57) (* (-  4) x_58) (* (-  4) x_59) (* (-  1) x_60)))
         (<= 0
          (+  0 x_51 (*  6 x_52) (*  12 x_53) (*  3 x_54) (*  12 x_55) (*  8 x_56) (*  3 x_57) (*  12 x_58) (*  6 x_59) x_60))
         (<= 0
          (+  0 (*  2 x_39) (* (-  8) x_40) (* (-  2) x_41) (*  8 x_42) (*  4 x_43) (*  8 x_44) (* (-  4) x_45) (* (-  8) x_46) (* (-  8) x_47) (*  8 x_48) (*  2 x_49) (* (-  2) x_50) (* (-  2) x_51) (*  10 x_52) (* (-  16) x_53) (* (-  4) x_54) (*  12 x_55) (*  8 x_56) (* (-  2) x_57) (* (-  8) x_58) (*  2 x_59)))
         (<= 0
          (+  0 (*  2 x_39) (* (-  4) x_40) (* (-  2) x_41) (*  4 x_42) (*  4 x_47) (* (-  4) x_48) (* (-  2) x_49) (*  2 x_50) (* (-  2) x_51) (*  6 x_52) (* (-  4) x_53) (* (-  4) x_55) (*  2 x_57) (*  4 x_58) (* (-  2) x_59)))
         (<= 0
          (+  0 (*  2 x_39) (* (-  8) x_40) (*  2 x_41) (* (-  8) x_42) (*  4 x_43) (*  8 x_44) (*  4 x_45) (*  8 x_46) (* (-  8) x_47) (* (-  8) x_48) (*  2 x_49) (*  2 x_50) (* (-  2) x_51) (*  6 x_52) (* (-  4) x_54) (*  4 x_55) (* (-  8) x_56) (* (-  2) x_57) (*  8 x_58) (* (-  2) x_59)))
         (<= 0
          (+  0 (*  2 x_39) (* (-  4) x_40) (*  2 x_41) (* (-  4) x_42) (*  4 x_47) (*  4 x_48) (* (-  2) x_49) (* (-  2) x_50) (* (-  2) x_51) (*  2 x_52) (*  4 x_53) (* (-  4) x_55) (*  2 x_57) (* (-  4) x_58) (*  2 x_59)))
         (<= 0
          (+  0 (*  2 x_39) (* (-  2) x_41) (*  4 x_43) (* (-  8) x_44) (* (-  4) x_45) (*  8 x_46) (*  2 x_49) (* (-  2) x_50) (* (-  2) x_51) (*  2 x_52) (*  8 x_53) (* (-  4) x_54) (*  4 x_55) (* (-  8) x_56) (* (-  2) x_57) (*  2 x_59)))
         (<= 0
          (+  0 (*  2 x_39) (* (-  2) x_41) (* (-  4) x_43) (*  4 x_45) (*  2 x_49) (* (-  2) x_50) (* (-  2) x_51) (*  2 x_52) (*  4 x_54) (* (-  4) x_55) (* (-  2) x_57) (*  2 x_59)))
         (<= 0
          (+  0 (*  2 x_39) (*  2 x_41) (*  4 x_43) (* (-  8) x_44) (*  4 x_45) (* (-  8) x_46) (*  2 x_49) (*  2 x_50) (* (-  2) x_51) (* (-  2) x_52) (*  8 x_53) (* (-  4) x_54) (* (-  4) x_55) (*  8 x_56) (* (-  2) x_57) (* (-  2) x_59)))
         (<= 0
          (+  0 (*  2 x_39) (*  2 x_41) (* (-  4) x_43) (* (-  4) x_45) (*  2 x_49) (*  2 x_50) (* (-  2) x_51) (* (-  2) x_52) (*  4 x_54) (*  4 x_55) (* (-  2) x_57) (* (-  2) x_59)))
         (<= 0
          (+  0 (*  2 x_39) (*  4 x_40) (* (-  2) x_41) (* (-  4) x_42) (* (-  4) x_47) (*  4 x_48) (* (-  2) x_49) (*  2 x_50) (* (-  2) x_51) (* (-  2) x_52) (*  4 x_53) (*  4 x_55) (*  2 x_57) (* (-  4) x_58) (* (-  2) x_59)))
         (<= 0
          (+  0 (*  2 x_39) (*  4 x_40) (*  2 x_41) (*  4 x_42) (* (-  4) x_47) (* (-  4) x_48) (* (-  2) x_49) (* (-  2) x_50) (* (-  2) x_51) (* (-  6) x_52) (* (-  4) x_53) (*  4 x_55) (*  2 x_57) (*  4 x_58) (*  2 x_59)))
         (<= 0
          (+  0 (*  2 x_39) (*  8 x_40) (* (-  2) x_41) (* (-  8) x_42) (*  4 x_43) (*  8 x_44) (* (-  4) x_45) (* (-  8) x_46) (*  8 x_47) (* (-  8) x_48) (*  2 x_49) (* (-  2) x_50) (* (-  2) x_51) (* (-  6) x_52) (* (-  4) x_54) (* (-  4) x_55) (*  8 x_56) (* (-  2) x_57) (*  8 x_58) (*  2 x_59)))
         (<= 0
          (+  0 (*  2 x_39) (*  8 x_40) (*  2 x_41) (*  8 x_42) (*  4 x_43) (*  8 x_44) (*  4 x_45) (*  8 x_46) (*  8 x_47) (*  8 x_48) (*  2 x_49) (*  2 x_50) (* (-  2) x_51) (* (-  10) x_52) (* (-  16) x_53) (* (-  4) x_54) (* (-  12) x_55) (* (-  8) x_56) (* (-  2) x_57) (* (-  8) x_58) (* (-  2) x_59)))
         (<= 0
          (+  0 (*  4 x_19) (* (-  8) x_20) (* (-  8) x_21) (*  4 x_22) (*  16 x_23) (*  4 x_24) (* (-  8) x_25) (* (-  8) x_26) (*  4 x_27) (* (-  8) x_39) (*  24 x_40) (*  8 x_41) (* (-  24) x_42) (* (-  8) x_43) (* (-  16) x_44) (*  8 x_45) (*  16 x_46) (*  8 x_47) (* (-  8) x_48) (*  4 x_51) (* (-  16) x_52) (*  20 x_53) (*  4 x_54) (* (-  8) x_55) (* (-  8) x_56) (*  4 x_58)))
         (<= 0
          (+  0 (*  4 x_19) (* (-  8) x_21) (* (-  4) x_22) (*  4 x_24) (*  8 x_25) (* (-  4) x_27) (* (-  8) x_39) (*  16 x_40) (*  8 x_42) (* (-  8) x_43) (* (-  16) x_46) (*  8 x_48) (*  4 x_51) (* (-  8) x_52) (* (-  4) x_53) (*  4 x_54) (*  8 x_56) (* (-  4) x_58)))
         (<= 0
          (+  0 (*  4 x_19) (* (-  8) x_20) (*  4 x_22) (* (-  4) x_24) (*  8 x_26) (* (-  4) x_27) (* (-  8) x_39) (*  8 x_40) (*  8 x_41) (* (-  8) x_42) (*  8 x_43) (* (-  8) x_45) (* (-  8) x_47) (*  8 x_48) (*  4 x_51) (* (-  8) x_52) (*  4 x_53) (* (-  4) x_54) (*  8 x_55) (* (-  4) x_58)))
         (<= 0
          (+  0 (*  4 x_19) (*  8 x_20) (* (-  8) x_21) (*  4 x_22) (* (-  16) x_23) (*  4 x_24) (* (-  8) x_25) (*  8 x_26) (*  4 x_27) (* (-  8) x_39) (*  8 x_40) (* (-  8) x_41) (*  8 x_42) (* (-  8) x_43) (*  16 x_44) (* (-  8) x_45) (*  16 x_46) (* (-  8) x_47) (* (-  8) x_48) (*  4 x_51) (* (-  12) x_53) (*  4 x_54) (*  8 x_55) (* (-  8) x_56) (*  4 x_58)))
         (<= 0
          (+  0 (*  4 x_19) (* (-  4) x_22) (* (-  4) x_24) (*  4 x_27) (* (-  8) x_39) (*  8 x_42) (*  8 x_43) (* (-  8) x_48) (*  4 x_51) (* (-  4) x_53) (* (-  4) x_54) (*  4 x_58)))
         (<= 0
          (+  0 (*  4 x_19) (* (-  8) x_20) (*  8 x_21) (*  4 x_22) (* (-  16) x_23) (*  4 x_24) (*  8 x_25) (* (-  8) x_26) (*  4 x_27) (* (-  8) x_39) (* (-  8) x_40) (*  8 x_41) (*  8 x_42) (* (-  8) x_43) (*  16 x_44) (*  8 x_45) (* (-  16) x_46) (*  8 x_47) (* (-  8) x_48) (*  4 x_51) (* (-  12) x_53) (*  4 x_54) (* (-  8) x_55) (*  8 x_56) (*  4 x_58)))
         (<= 0
          (+  0 (*  4 x_19) (*  8 x_20) (*  4 x_22) (* (-  4) x_24) (* (-  8) x_26) (* (-  4) x_27) (* (-  8) x_39) (* (-  8) x_40) (* (-  8) x_41) (* (-  8) x_42) (*  8 x_43) (*  8 x_45) (*  8 x_47) (*  8 x_48) (*  4 x_51) (*  8 x_52) (*  4 x_53) (* (-  4) x_54) (* (-  8) x_55) (* (-  4) x_58)))
         (<= 0
          (+  0 (*  4 x_19) (*  8 x_21) (* (-  4) x_22) (*  4 x_24) (* (-  8) x_25) (* (-  4) x_27) (* (-  8) x_39) (* (-  16) x_40) (*  8 x_42) (* (-  8) x_43) (*  16 x_46) (*  8 x_48) (*  4 x_51) (*  8 x_52) (* (-  4) x_53) (*  4 x_54) (* (-  8) x_56) (* (-  4) x_58)))
         (<= 0
          (+  0 (*  4 x_19) (*  8 x_20) (*  8 x_21) (*  4 x_22) (*  16 x_23) (*  4 x_24) (*  8 x_25) (*  8 x_26) (*  4 x_27) (* (-  8) x_39) (* (-  24) x_40) (* (-  8) x_41) (* (-  24) x_42) (* (-  8) x_43) (* (-  16) x_44) (* (-  8) x_45) (* (-  16) x_46) (* (-  8) x_47) (* (-  8) x_48) (*  4 x_51) (*  16 x_52) (*  20 x_53) (*  4 x_54) (*  8 x_55) (*  8 x_56) (*  4 x_58)))
         (<= 0
          (+  0 (*  4 x_33) (* (-  16) x_34) (*  8 x_35) (*  16 x_36) (* (-  16) x_37) (*  4 x_38) (* (-  8) x_39) (*  32 x_40) (* (-  16) x_43) (* (-  32) x_44) (*  32 x_47) (* (-  8) x_49) (*  4 x_51) (* (-  16) x_52) (*  16 x_53) (*  8 x_54) (* (-  16) x_55) (*  4 x_57)))
         (<= 0
          (+  0 (*  4 x_33) (* (-  8) x_34) (*  8 x_37) (* (-  4) x_38) (* (-  8) x_39) (*  16 x_40) (* (-  16) x_47) (*  8 x_49) (*  4 x_51) (* (-  8) x_52) (*  8 x_55) (* (-  4) x_57)))
         (<= 0
          (+  0 (*  4 x_33) (*  8 x_35) (* (-  16) x_36) (*  4 x_38) (* (-  8) x_39) (* (-  16) x_43) (*  32 x_44) (* (-  8) x_49) (*  4 x_51) (* (-  16) x_53) (*  8 x_54) (*  4 x_57)))
         (<= 0
          (+  0 (*  4 x_33) (* (-  8) x_35) (*  4 x_38) (* (-  8) x_39) (*  16 x_43) (* (-  8) x_49) (*  4 x_51) (* (-  8) x_54) (*  4 x_57)))
         (<= 0
          (+  0 (*  4 x_33) (*  8 x_34) (* (-  8) x_37) (* (-  4) x_38) (* (-  8) x_39) (* (-  16) x_40) (*  16 x_47) (*  8 x_49) (*  4 x_51) (*  8 x_52) (* (-  8) x_55) (* (-  4) x_57)))
         (<= 0
          (+  0 (*  4 x_33) (*  16 x_34) (*  8 x_35) (*  16 x_36) (*  16 x_37) (*  4 x_38) (* (-  8) x_39) (* (-  32) x_40) (* (-  16) x_43) (* (-  32) x_44) (* (-  32) x_47) (* (-  8) x_49) (*  4 x_51) (*  16 x_52) (*  16 x_53) (*  8 x_54) (*  16 x_55) (*  4 x_57)))
         (<= 0
          (+  0 (*  8 x_13) (* (-  8) x_14) (* (-  16) x_15) (*  16 x_16) (*  8 x_17) (* (-  8) x_18) (* (-  16) x_19) (*  16 x_20) (*  32 x_21) (* (-  32) x_23) (* (-  16) x_24) (*  16 x_26) (* (-  8) x_33) (*  24 x_34) (* (-  8) x_35) (* (-  16) x_36) (*  8 x_37) (*  24 x_39) (* (-  64) x_40) (* (-  8) x_41) (*  16 x_42) (*  24 x_43) (*  32 x_44) (* (-  8) x_45) (* (-  16) x_47) (* (-  8) x_51) (*  24 x_52) (* (-  16) x_53) (* (-  8) x_54) (*  8 x_55)))
         (<= 0
          (+  0 (*  8 x_13) (*  8 x_14) (* (-  16) x_15) (* (-  16) x_16) (*  8 x_17) (*  8 x_18) (* (-  16) x_19) (* (-  16) x_20) (*  32 x_21) (*  32 x_23) (* (-  16) x_24) (* (-  16) x_26) (* (-  8) x_33) (*  8 x_34) (* (-  8) x_35) (*  16 x_36) (* (-  8) x_37) (*  24 x_39) (* (-  32) x_40) (*  8 x_41) (* (-  16) x_42) (*  24 x_43) (* (-  32) x_44) (*  8 x_45) (*  16 x_47) (* (-  8) x_51) (*  8 x_52) (*  16 x_53) (* (-  8) x_54) (* (-  8) x_55)))
         (<= 0
          (+  0 (*  8 x_13) (* (-  8) x_14) (* (-  8) x_17) (*  8 x_18) (* (-  16) x_19) (*  16 x_20) (*  16 x_24) (* (-  16) x_26) (* (-  8) x_33) (*  8 x_34) (*  8 x_35) (* (-  8) x_37) (*  24 x_39) (* (-  16) x_40) (* (-  8) x_41) (* (-  24) x_43) (*  8 x_45) (*  16 x_47) (* (-  8) x_51) (*  8 x_52) (*  8 x_54) (* (-  8) x_55)))
         (<= 0
          (+  0 (*  8 x_13) (*  8 x_14) (* (-  8) x_17) (* (-  8) x_18) (* (-  16) x_19) (* (-  16) x_20) (*  16 x_24) (*  16 x_26) (* (-  8) x_33) (* (-  8) x_34) (*  8 x_35) (*  8 x_37) (*  24 x_39) (*  16 x_40) (*  8 x_41) (* (-  24) x_43) (* (-  8) x_45) (* (-  16) x_47) (* (-  8) x_51) (* (-  8) x_52) (*  8 x_54) (*  8 x_55)))
         (<= 0
          (+  0 (*  8 x_13) (* (-  8) x_14) (*  16 x_15) (* (-  16) x_16) (*  8 x_17) (* (-  8) x_18) (* (-  16) x_19) (*  16 x_20) (* (-  32) x_21) (*  32 x_23) (* (-  16) x_24) (*  16 x_26) (* (-  8) x_33) (* (-  8) x_34) (* (-  8) x_35) (*  16 x_36) (*  8 x_37) (*  24 x_39) (*  32 x_40) (* (-  8) x_41) (* (-  16) x_42) (*  24 x_43) (* (-  32) x_44) (* (-  8) x_45) (* (-  16) x_47) (* (-  8) x_51) (* (-  8) x_52) (*  16 x_53) (* (-  8) x_54) (*  8 x_55)))
         (<= 0
          (+  0 (*  8 x_13) (*  8 x_14) (*  16 x_15) (*  16 x_16) (*  8 x_17) (*  8 x_18) (* (-  16) x_19) (* (-  16) x_20) (* (-  32) x_21) (* (-  32) x_23) (* (-  16) x_24) (* (-  16) x_26) (* (-  8) x_33) (* (-  24) x_34) (* (-  8) x_35) (* (-  16) x_36) (* (-  8) x_37) (*  24 x_39) (*  64 x_40) (*  8 x_41) (*  16 x_42) (*  24 x_43) (*  32 x_44) (*  8 x_45) (*  16 x_47) (* (-  8) x_51) (* (-  24) x_52) (* (-  16) x_53) (* (-  8) x_54) (* (-  8) x_55)))
         (<= 0
          (+  0 (*  8 x_9) (* (-  24) x_10) (*  24 x_11) (* (-  8) x_12) (* (-  24) x_19) (*  48 x_20) (*  24 x_21) (* (-  24) x_22) (* (-  48) x_23) (*  24 x_25) (*  24 x_39) (* (-  48) x_40) (* (-  24) x_41) (*  48 x_42) (*  24 x_44) (* (-  24) x_46) (* (-  8) x_51) (*  24 x_52) (* (-  24) x_53) (*  8 x_56)))
         (<= 0
          (+  0 (*  8 x_9) (* (-  8) x_10) (* (-  8) x_11) (*  8 x_12) (* (-  24) x_19) (*  16 x_20) (*  8 x_21) (*  8 x_22) (*  16 x_23) (* (-  24) x_25) (*  24 x_39) (* (-  16) x_40) (* (-  8) x_41) (* (-  16) x_42) (* (-  8) x_44) (*  24 x_46) (* (-  8) x_51) (*  8 x_52) (*  8 x_53) (* (-  8) x_56)))
         (<= 0
          (+  0 (*  8 x_9) (*  8 x_10) (* (-  8) x_11) (* (-  8) x_12) (* (-  24) x_19) (* (-  16) x_20) (* (-  8) x_21) (*  8 x_22) (*  16 x_23) (*  24 x_25) (*  24 x_39) (*  16 x_40) (*  8 x_41) (* (-  16) x_42) (* (-  8) x_44) (* (-  24) x_46) (* (-  8) x_51) (* (-  8) x_52) (*  8 x_53) (*  8 x_56)))
         (<= 0
          (+  0 (*  8 x_9) (*  24 x_10) (*  24 x_11) (*  8 x_12) (* (-  24) x_19) (* (-  48) x_20) (* (-  24) x_21) (* (-  24) x_22) (* (-  48) x_23) (* (-  24) x_25) (*  24 x_39) (*  48 x_40) (*  24 x_41) (*  48 x_42) (*  24 x_44) (*  24 x_46) (* (-  8) x_51) (* (-  24) x_52) (* (-  24) x_53) (* (-  8) x_56)))
         (<= 0
          (+  0 (*  16 x_3) (* (-  32) x_4) (*  16 x_5) (* (-  64) x_13) (*  128 x_15) (* (-  64) x_17) (*  64 x_19) (* (-  128) x_21) (*  64 x_24) (*  32 x_33) (* (-  64) x_34) (*  32 x_35) (* (-  64) x_39) (*  128 x_40) (* (-  64) x_43) (*  16 x_51) (* (-  32) x_52) (*  16 x_54)))
         (<= 0
          (+  0 (*  16 x_3) (* (-  16) x_5) (* (-  64) x_13) (*  64 x_17) (*  64 x_19) (* (-  64) x_24) (*  32 x_33) (* (-  32) x_35) (* (-  64) x_39) (*  64 x_43) (*  16 x_51) (* (-  16) x_54)))
         (<= 0
          (+  0 (*  16 x_3) (*  32 x_4) (*  16 x_5) (* (-  64) x_13) (* (-  128) x_15) (* (-  64) x_17) (*  64 x_19) (*  128 x_21) (*  64 x_24) (*  32 x_33) (*  64 x_34) (*  32 x_35) (* (-  64) x_39) (* (-  128) x_40) (* (-  64) x_43) (*  16 x_51) (*  32 x_52) (*  16 x_54)))
         (<= 0
          (+  0 (*  16 x_6) (* (-  32) x_7) (*  16 x_8) (* (-  32) x_9) (*  64 x_10) (* (-  32) x_11) (* (-  32) x_13) (*  32 x_14) (*  32 x_15) (* (-  32) x_16) (*  80 x_19) (* (-  96) x_20) (* (-  64) x_21) (*  16 x_22) (*  64 x_23) (*  16 x_33) (* (-  32) x_34) (*  16 x_36) (* (-  64) x_39) (*  96 x_40) (*  32 x_41) (* (-  32) x_42) (* (-  32) x_44) (*  16 x_51) (* (-  32) x_52) (*  16 x_53)))
         (<= 0
          (+  0 (*  16 x_6) (* (-  16) x_8) (* (-  32) x_9) (*  32 x_11) (* (-  32) x_13) (*  32 x_16) (*  80 x_19) (* (-  16) x_22) (* (-  64) x_23) (*  16 x_33) (* (-  16) x_36) (* (-  64) x_39) (*  32 x_42) (*  32 x_44) (*  16 x_51) (* (-  16) x_53)))
         (<= 0
          (+  0 (*  16 x_6) (*  32 x_7) (*  16 x_8) (* (-  32) x_9) (* (-  64) x_10) (* (-  32) x_11) (* (-  32) x_13) (* (-  32) x_14) (* (-  32) x_15) (* (-  32) x_16) (*  80 x_19) (*  96 x_20) (*  64 x_21) (*  16 x_22) (*  64 x_23) (*  16 x_33) (*  32 x_34) (*  16 x_36) (* (-  64) x_39) (* (-  96) x_40) (* (-  32) x_41) (* (-  32) x_42) (* (-  32) x_44) (*  16 x_51) (*  32 x_52) (*  16 x_53)))
         (<= 0
          (+  0 (*  32 x_1) (* (-  32) x_2) (* (-  32) x_3) (*  32 x_4) (* (-  128) x_6) (*  128 x_7) (*  128 x_9) (* (-  128) x_10) (*  192 x_13) (* (-  64) x_14) (* (-  128) x_15) (* (-  256) x_19) (*  128 x_20) (*  128 x_21) (* (-  64) x_33) (*  64 x_34) (*  160 x_39) (* (-  128) x_40) (* (-  32) x_41) (* (-  32) x_51) (*  32 x_52)))
         (<= 0
          (+  0 (*  32 x_1) (*  32 x_2) (* (-  32) x_3) (* (-  32) x_4) (* (-  128) x_6) (* (-  128) x_7) (*  128 x_9) (*  128 x_10) (*  192 x_13) (*  64 x_14) (*  128 x_15) (* (-  256) x_19) (* (-  128) x_20) (* (-  128) x_21) (* (-  64) x_33) (* (-  64) x_34) (*  160 x_39) (*  128 x_40) (*  32 x_41) (* (-  32) x_51) (* (-  32) x_52)))
         (<= 0
          (+  0 x_28 (* (-  4) x_29) (*  6 x_30) (* (-  4) x_31) x_32))
         (<= 0
          (+  0 x_28 (* (-  2) x_29) (*  2 x_31) (* (-  1) x_32)))
         (<= 0
          (+  0 x_28 (* (-  2) x_30) x_32))
         (<= 0
          (+  0 x_28 (*  2 x_29) (* (-  2) x_31) (* (-  1) x_32)))
         (<= 0
          (+  0 x_28 (*  4 x_29) (*  6 x_30) (*  4 x_31) x_32)))  (forall ((x_1 Real) (x_2 Real) (x_6 Real) (x_7 Real) (x_8 Real) (x_9 Real) (x_10 Real) (x_11 Real) (x_12 Real) (x_14 Real) (x_15 Real) (x_16 Real) (x_17 Real) (x_18 Real) (x_19 Real) (x_20 Real) (x_21 Real) (x_22 Real) (x_23 Real) (x_24 Real) (x_25 Real) (x_26 Real) (x_27 Real) (x_28 Real) (x_29 Real) (x_30 Real) (x_31 Real) (x_32 Real) (x_33 Real) (x_34 Real) (x_35 Real) (x_36 Real) (x_37 Real) (x_38 Real) (x_39 Real) (x_40 Real) (x_41 Real) (x_42 Real) (x_43 Real) (x_44 Real) (x_45 Real) (x_46 Real) (x_47 Real) (x_48 Real) (x_49 Real) (x_50 Real) (x_51 Real) (x_52 Real) (x_53 Real) (x_54 Real) (x_55 Real) (x_56 Real) (x_57 Real) (x_58 Real) (x_59 Real) (x_60 Real) )
    (=>       (and
         (<= 0
          (+  0 (*  2 x_9) (* (-  6) x_10) (*  6 x_11) (* (-  2) x_12) (* (-  2) x_28) (*  6 x_29) (* (-  6) x_30) (*  2 x_31)))
         (<= 0
          (+  0 (*  2 x_9) (* (-  2) x_10) (* (-  2) x_11) (*  2 x_12) (* (-  2) x_28) (*  2 x_29) (*  2 x_30) (* (-  2) x_31)))
         (<= 0
          (+  0 (*  2 x_9) (*  2 x_10) (* (-  2) x_11) (* (-  2) x_12) (* (-  2) x_28) (* (-  2) x_29) (*  2 x_30) (*  2 x_31)))
         (<= 0
          (+  0 (*  2 x_9) (*  6 x_10) (*  6 x_11) (*  2 x_12) (* (-  2) x_28) (* (-  6) x_29) (* (-  6) x_30) (* (-  2) x_31)))
         (<= 0
          (+  0 (*  4 x_6) (* (-  8) x_7) (*  4 x_8) (* (-  8) x_9) (*  16 x_10) (* (-  8) x_11) (*  4 x_28) (* (-  8) x_29) (*  4 x_30)))
         (<= 0
          (+  0 (*  4 x_6) (* (-  4) x_8) (* (-  8) x_9) (*  8 x_11) (*  4 x_28) (* (-  4) x_30)))
         (<= 0
          (+  0 (*  4 x_6) (*  8 x_7) (*  4 x_8) (* (-  8) x_9) (* (-  16) x_10) (* (-  8) x_11) (*  4 x_28) (*  8 x_29) (*  4 x_30)))
         (<= 0
          (+  0 (*  8 x_1) (* (-  8) x_2) (* (-  24) x_6) (*  24 x_7) (*  24 x_9) (* (-  24) x_10) (* (-  8) x_28) (*  8 x_29)))
         (<= 0
          (+  0 (*  8 x_1) (*  8 x_2) (* (-  24) x_6) (* (-  24) x_7) (*  24 x_9) (*  24 x_10) (* (-  8) x_28) (* (-  8) x_29)))
         (<= 0
          (+  16 (* (-  64) x_1) (*  96 x_6) (* (-  64) x_9) (*  16 x_28)))
         (<= 0
          (+  0 x_51 (* (-  6) x_52) (*  12 x_53) (*  3 x_54) (* (-  12) x_55) (* (-  8) x_56) (*  3 x_57) (*  12 x_58) (* (-  6) x_59) x_60))
         (<= 0
          (+  0 x_51 (* (-  4) x_52) (*  4 x_53) x_54 (* (-  1) x_57) (* (-  4) x_58) (*  4 x_59) (* (-  1) x_60)))
         (<= 0
          (+  0 x_51 (* (-  2) x_52) (* (-  1) x_54) (*  4 x_55) (* (-  1) x_57) (* (-  2) x_59) x_60))
         (<= 0
          (+  0 x_51 (* (-  2) x_52) (* (-  4) x_53) (*  3 x_54) (* (-  4) x_55) (*  8 x_56) (*  3 x_57) (* (-  4) x_58) (* (-  2) x_59) x_60))
         (<= 0
          (+  0 x_51 (* (-  4) x_53) x_54 (* (-  1) x_57) (*  4 x_58) (* (-  1) x_60)))
         (<= 0
          (+  0 x_51 (* (-  3) x_54) (*  3 x_57) (* (-  1) x_60)))
         (<= 0
          (+  0 x_51 (*  2 x_52) (* (-  4) x_53) (*  3 x_54) (*  4 x_55) (* (-  8) x_56) (*  3 x_57) (* (-  4) x_58) (*  2 x_59) x_60))
         (<= 0
          (+  0 x_51 (*  2 x_52) (* (-  1) x_54) (* (-  4) x_55) (* (-  1) x_57) (*  2 x_59) x_60))
         (<= 0
          (+  0 x_51 (*  4 x_52) (*  4 x_53) x_54 (* (-  1) x_57) (* (-  4) x_58) (* (-  4) x_59) (* (-  1) x_60)))
         (<= 0
          (+  0 x_51 (*  6 x_52) (*  12 x_53) (*  3 x_54) (*  12 x_55) (*  8 x_56) (*  3 x_57) (*  12 x_58) (*  6 x_59) x_60))
         (<= 0
          (+  0 (*  2 x_39) (* (-  8) x_40) (* (-  2) x_41) (*  8 x_42) (*  4 x_43) (*  8 x_44) (* (-  4) x_45) (* (-  8) x_46) (* (-  8) x_47) (*  8 x_48) (*  2 x_49) (* (-  2) x_50) (* (-  2) x_51) (*  10 x_52) (* (-  16) x_53) (* (-  4) x_54) (*  12 x_55) (*  8 x_56) (* (-  2) x_57) (* (-  8) x_58) (*  2 x_59)))
         (<= 0
          (+  0 (*  2 x_39) (* (-  4) x_40) (* (-  2) x_41) (*  4 x_42) (*  4 x_47) (* (-  4) x_48) (* (-  2) x_49) (*  2 x_50) (* (-  2) x_51) (*  6 x_52) (* (-  4) x_53) (* (-  4) x_55) (*  2 x_57) (*  4 x_58) (* (-  2) x_59)))
         (<= 0
          (+  0 (*  2 x_39) (* (-  8) x_40) (*  2 x_41) (* (-  8) x_42) (*  4 x_43) (*  8 x_44) (*  4 x_45) (*  8 x_46) (* (-  8) x_47) (* (-  8) x_48) (*  2 x_49) (*  2 x_50) (* (-  2) x_51) (*  6 x_52) (* (-  4) x_54) (*  4 x_55) (* (-  8) x_56) (* (-  2) x_57) (*  8 x_58) (* (-  2) x_59)))
         (<= 0
          (+  0 (*  2 x_39) (* (-  4) x_40) (*  2 x_41) (* (-  4) x_42) (*  4 x_47) (*  4 x_48) (* (-  2) x_49) (* (-  2) x_50) (* (-  2) x_51) (*  2 x_52) (*  4 x_53) (* (-  4) x_55) (*  2 x_57) (* (-  4) x_58) (*  2 x_59)))
         (<= 0
          (+  0 (*  2 x_39) (* (-  2) x_41) (*  4 x_43) (* (-  8) x_44) (* (-  4) x_45) (*  8 x_46) (*  2 x_49) (* (-  2) x_50) (* (-  2) x_51) (*  2 x_52) (*  8 x_53) (* (-  4) x_54) (*  4 x_55) (* (-  8) x_56) (* (-  2) x_57) (*  2 x_59)))
         (<= 0
          (+  0 (*  2 x_39) (* (-  2) x_41) (* (-  4) x_43) (*  4 x_45) (*  2 x_49) (* (-  2) x_50) (* (-  2) x_51) (*  2 x_52) (*  4 x_54) (* (-  4) x_55) (* (-  2) x_57) (*  2 x_59)))
         (<= 0
          (+  0 (*  2 x_39) (*  2 x_41) (*  4 x_43) (* (-  8) x_44) (*  4 x_45) (* (-  8) x_46) (*  2 x_49) (*  2 x_50) (* (-  2) x_51) (* (-  2) x_52) (*  8 x_53) (* (-  4) x_54) (* (-  4) x_55) (*  8 x_56) (* (-  2) x_57) (* (-  2) x_59)))
         (<= 0
          (+  0 (*  2 x_39) (*  2 x_41) (* (-  4) x_43) (* (-  4) x_45) (*  2 x_49) (*  2 x_50) (* (-  2) x_51) (* (-  2) x_52) (*  4 x_54) (*  4 x_55) (* (-  2) x_57) (* (-  2) x_59)))
         (<= 0
          (+  0 (*  2 x_39) (*  4 x_40) (* (-  2) x_41) (* (-  4) x_42) (* (-  4) x_47) (*  4 x_48) (* (-  2) x_49) (*  2 x_50) (* (-  2) x_51) (* (-  2) x_52) (*  4 x_53) (*  4 x_55) (*  2 x_57) (* (-  4) x_58) (* (-  2) x_59)))
         (<= 0
          (+  0 (*  2 x_39) (*  4 x_40) (*  2 x_41) (*  4 x_42) (* (-  4) x_47) (* (-  4) x_48) (* (-  2) x_49) (* (-  2) x_50) (* (-  2) x_51) (* (-  6) x_52) (* (-  4) x_53) (*  4 x_55) (*  2 x_57) (*  4 x_58) (*  2 x_59)))
         (<= 0
          (+  0 (*  2 x_39) (*  8 x_40) (* (-  2) x_41) (* (-  8) x_42) (*  4 x_43) (*  8 x_44) (* (-  4) x_45) (* (-  8) x_46) (*  8 x_47) (* (-  8) x_48) (*  2 x_49) (* (-  2) x_50) (* (-  2) x_51) (* (-  6) x_52) (* (-  4) x_54) (* (-  4) x_55) (*  8 x_56) (* (-  2) x_57) (*  8 x_58) (*  2 x_59)))
         (<= 0
          (+  0 (*  2 x_39) (*  8 x_40) (*  2 x_41) (*  8 x_42) (*  4 x_43) (*  8 x_44) (*  4 x_45) (*  8 x_46) (*  8 x_47) (*  8 x_48) (*  2 x_49) (*  2 x_50) (* (-  2) x_51) (* (-  10) x_52) (* (-  16) x_53) (* (-  4) x_54) (* (-  12) x_55) (* (-  8) x_56) (* (-  2) x_57) (* (-  8) x_58) (* (-  2) x_59)))
         (<= 0
          (+  0 (*  4 x_19) (* (-  8) x_20) (* (-  8) x_21) (*  4 x_22) (*  16 x_23) (*  4 x_24) (* (-  8) x_25) (* (-  8) x_26) (*  4 x_27) (* (-  8) x_39) (*  24 x_40) (*  8 x_41) (* (-  24) x_42) (* (-  8) x_43) (* (-  16) x_44) (*  8 x_45) (*  16 x_46) (*  8 x_47) (* (-  8) x_48) (*  4 x_51) (* (-  16) x_52) (*  20 x_53) (*  4 x_54) (* (-  8) x_55) (* (-  8) x_56) (*  4 x_58)))
         (<= 0
          (+  0 (*  4 x_19) (* (-  8) x_21) (* (-  4) x_22) (*  4 x_24) (*  8 x_25) (* (-  4) x_27) (* (-  8) x_39) (*  16 x_40) (*  8 x_42) (* (-  8) x_43) (* (-  16) x_46) (*  8 x_48) (*  4 x_51) (* (-  8) x_52) (* (-  4) x_53) (*  4 x_54) (*  8 x_56) (* (-  4) x_58)))
         (<= 0
          (+  0 (*  4 x_19) (* (-  8) x_20) (*  4 x_22) (* (-  4) x_24) (*  8 x_26) (* (-  4) x_27) (* (-  8) x_39) (*  8 x_40) (*  8 x_41) (* (-  8) x_42) (*  8 x_43) (* (-  8) x_45) (* (-  8) x_47) (*  8 x_48) (*  4 x_51) (* (-  8) x_52) (*  4 x_53) (* (-  4) x_54) (*  8 x_55) (* (-  4) x_58)))
         (<= 0
          (+  0 (*  4 x_19) (*  8 x_20) (* (-  8) x_21) (*  4 x_22) (* (-  16) x_23) (*  4 x_24) (* (-  8) x_25) (*  8 x_26) (*  4 x_27) (* (-  8) x_39) (*  8 x_40) (* (-  8) x_41) (*  8 x_42) (* (-  8) x_43) (*  16 x_44) (* (-  8) x_45) (*  16 x_46) (* (-  8) x_47) (* (-  8) x_48) (*  4 x_51) (* (-  12) x_53) (*  4 x_54) (*  8 x_55) (* (-  8) x_56) (*  4 x_58)))
         (<= 0
          (+  0 (*  4 x_19) (* (-  4) x_22) (* (-  4) x_24) (*  4 x_27) (* (-  8) x_39) (*  8 x_42) (*  8 x_43) (* (-  8) x_48) (*  4 x_51) (* (-  4) x_53) (* (-  4) x_54) (*  4 x_58)))
         (<= 0
          (+  0 (*  4 x_19) (* (-  8) x_20) (*  8 x_21) (*  4 x_22) (* (-  16) x_23) (*  4 x_24) (*  8 x_25) (* (-  8) x_26) (*  4 x_27) (* (-  8) x_39) (* (-  8) x_40) (*  8 x_41) (*  8 x_42) (* (-  8) x_43) (*  16 x_44) (*  8 x_45) (* (-  16) x_46) (*  8 x_47) (* (-  8) x_48) (*  4 x_51) (* (-  12) x_53) (*  4 x_54) (* (-  8) x_55) (*  8 x_56) (*  4 x_58)))
         (<= 0
          (+  0 (*  4 x_19) (*  8 x_20) (*  4 x_22) (* (-  4) x_24) (* (-  8) x_26) (* (-  4) x_27) (* (-  8) x_39) (* (-  8) x_40) (* (-  8) x_41) (* (-  8) x_42) (*  8 x_43) (*  8 x_45) (*  8 x_47) (*  8 x_48) (*  4 x_51) (*  8 x_52) (*  4 x_53) (* (-  4) x_54) (* (-  8) x_55) (* (-  4) x_58)))
         (<= 0
          (+  0 (*  4 x_19) (*  8 x_21) (* (-  4) x_22) (*  4 x_24) (* (-  8) x_25) (* (-  4) x_27) (* (-  8) x_39) (* (-  16) x_40) (*  8 x_42) (* (-  8) x_43) (*  16 x_46) (*  8 x_48) (*  4 x_51) (*  8 x_52) (* (-  4) x_53) (*  4 x_54) (* (-  8) x_56) (* (-  4) x_58)))
         (<= 0
          (+  0 (*  4 x_19) (*  8 x_20) (*  8 x_21) (*  4 x_22) (*  16 x_23) (*  4 x_24) (*  8 x_25) (*  8 x_26) (*  4 x_27) (* (-  8) x_39) (* (-  24) x_40) (* (-  8) x_41) (* (-  24) x_42) (* (-  8) x_43) (* (-  16) x_44) (* (-  8) x_45) (* (-  16) x_46) (* (-  8) x_47) (* (-  8) x_48) (*  4 x_51) (*  16 x_52) (*  20 x_53) (*  4 x_54) (*  8 x_55) (*  8 x_56) (*  4 x_58)))
         (<= 0
          (+  0 (*  4 x_33) (* (-  16) x_34) (*  8 x_35) (*  16 x_36) (* (-  16) x_37) (*  4 x_38) (* (-  8) x_39) (*  32 x_40) (* (-  16) x_43) (* (-  32) x_44) (*  32 x_47) (* (-  8) x_49) (*  4 x_51) (* (-  16) x_52) (*  16 x_53) (*  8 x_54) (* (-  16) x_55) (*  4 x_57)))
         (<= 0
          (+  0 (*  4 x_33) (* (-  8) x_34) (*  8 x_37) (* (-  4) x_38) (* (-  8) x_39) (*  16 x_40) (* (-  16) x_47) (*  8 x_49) (*  4 x_51) (* (-  8) x_52) (*  8 x_55) (* (-  4) x_57)))
         (<= 0
          (+  0 (*  4 x_33) (*  8 x_35) (* (-  16) x_36) (*  4 x_38) (* (-  8) x_39) (* (-  16) x_43) (*  32 x_44) (* (-  8) x_49) (*  4 x_51) (* (-  16) x_53) (*  8 x_54) (*  4 x_57)))
         (<= 0
          (+  0 (*  4 x_33) (* (-  8) x_35) (*  4 x_38) (* (-  8) x_39) (*  16 x_43) (* (-  8) x_49) (*  4 x_51) (* (-  8) x_54) (*  4 x_57)))
         (<= 0
          (+  0 (*  4 x_33) (*  8 x_34) (* (-  8) x_37) (* (-  4) x_38) (* (-  8) x_39) (* (-  16) x_40) (*  16 x_47) (*  8 x_49) (*  4 x_51) (*  8 x_52) (* (-  8) x_55) (* (-  4) x_57)))
         (<= 0
          (+  0 (*  4 x_33) (*  16 x_34) (*  8 x_35) (*  16 x_36) (*  16 x_37) (*  4 x_38) (* (-  8) x_39) (* (-  32) x_40) (* (-  16) x_43) (* (-  32) x_44) (* (-  32) x_47) (* (-  8) x_49) (*  4 x_51) (*  16 x_52) (*  16 x_53) (*  8 x_54) (*  16 x_55) (*  4 x_57)))
         (<= 0
          (+  0 (*  8 x_13) (* (-  8) x_14) (* (-  16) x_15) (*  16 x_16) (*  8 x_17) (* (-  8) x_18) (* (-  16) x_19) (*  16 x_20) (*  32 x_21) (* (-  32) x_23) (* (-  16) x_24) (*  16 x_26) (* (-  8) x_33) (*  24 x_34) (* (-  8) x_35) (* (-  16) x_36) (*  8 x_37) (*  24 x_39) (* (-  64) x_40) (* (-  8) x_41) (*  16 x_42) (*  24 x_43) (*  32 x_44) (* (-  8) x_45) (* (-  16) x_47) (* (-  8) x_51) (*  24 x_52) (* (-  16) x_53) (* (-  8) x_54) (*  8 x_55)))
         (<= 0
          (+  0 (*  8 x_13) (*  8 x_14) (* (-  16) x_15) (* (-  16) x_16) (*  8 x_17) (*  8 x_18) (* (-  16) x_19) (* (-  16) x_20) (*  32 x_21) (*  32 x_23) (* (-  16) x_24) (* (-  16) x_26) (* (-  8) x_33) (*  8 x_34) (* (-  8) x_35) (*  16 x_36) (* (-  8) x_37) (*  24 x_39) (* (-  32) x_40) (*  8 x_41) (* (-  16) x_42) (*  24 x_43) (* (-  32) x_44) (*  8 x_45) (*  16 x_47) (* (-  8) x_51) (*  8 x_52) (*  16 x_53) (* (-  8) x_54) (* (-  8) x_55)))
         (<= 0
          (+  0 (*  8 x_13) (* (-  8) x_14) (* (-  8) x_17) (*  8 x_18) (* (-  16) x_19) (*  16 x_20) (*  16 x_24) (* (-  16) x_26) (* (-  8) x_33) (*  8 x_34) (*  8 x_35) (* (-  8) x_37) (*  24 x_39) (* (-  16) x_40) (* (-  8) x_41) (* (-  24) x_43) (*  8 x_45) (*  16 x_47) (* (-  8) x_51) (*  8 x_52) (*  8 x_54) (* (-  8) x_55)))
         (<= 0
          (+  0 (*  8 x_13) (*  8 x_14) (* (-  8) x_17) (* (-  8) x_18) (* (-  16) x_19) (* (-  16) x_20) (*  16 x_24) (*  16 x_26) (* (-  8) x_33) (* (-  8) x_34) (*  8 x_35) (*  8 x_37) (*  24 x_39) (*  16 x_40) (*  8 x_41) (* (-  24) x_43) (* (-  8) x_45) (* (-  16) x_47) (* (-  8) x_51) (* (-  8) x_52) (*  8 x_54) (*  8 x_55)))
         (<= 0
          (+  0 (*  8 x_13) (* (-  8) x_14) (*  16 x_15) (* (-  16) x_16) (*  8 x_17) (* (-  8) x_18) (* (-  16) x_19) (*  16 x_20) (* (-  32) x_21) (*  32 x_23) (* (-  16) x_24) (*  16 x_26) (* (-  8) x_33) (* (-  8) x_34) (* (-  8) x_35) (*  16 x_36) (*  8 x_37) (*  24 x_39) (*  32 x_40) (* (-  8) x_41) (* (-  16) x_42) (*  24 x_43) (* (-  32) x_44) (* (-  8) x_45) (* (-  16) x_47) (* (-  8) x_51) (* (-  8) x_52) (*  16 x_53) (* (-  8) x_54) (*  8 x_55)))
         (<= 0
          (+  0 (*  8 x_13) (*  8 x_14) (*  16 x_15) (*  16 x_16) (*  8 x_17) (*  8 x_18) (* (-  16) x_19) (* (-  16) x_20) (* (-  32) x_21) (* (-  32) x_23) (* (-  16) x_24) (* (-  16) x_26) (* (-  8) x_33) (* (-  24) x_34) (* (-  8) x_35) (* (-  16) x_36) (* (-  8) x_37) (*  24 x_39) (*  64 x_40) (*  8 x_41) (*  16 x_42) (*  24 x_43) (*  32 x_44) (*  8 x_45) (*  16 x_47) (* (-  8) x_51) (* (-  24) x_52) (* (-  16) x_53) (* (-  8) x_54) (* (-  8) x_55)))
         (<= 0
          (+  0 (*  8 x_9) (* (-  24) x_10) (*  24 x_11) (* (-  8) x_12) (* (-  24) x_19) (*  48 x_20) (*  24 x_21) (* (-  24) x_22) (* (-  48) x_23) (*  24 x_25) (*  24 x_39) (* (-  48) x_40) (* (-  24) x_41) (*  48 x_42) (*  24 x_44) (* (-  24) x_46) (* (-  8) x_51) (*  24 x_52) (* (-  24) x_53) (*  8 x_56)))
         (<= 0
          (+  0 (*  8 x_9) (* (-  8) x_10) (* (-  8) x_11) (*  8 x_12) (* (-  24) x_19) (*  16 x_20) (*  8 x_21) (*  8 x_22) (*  16 x_23) (* (-  24) x_25) (*  24 x_39) (* (-  16) x_40) (* (-  8) x_41) (* (-  16) x_42) (* (-  8) x_44) (*  24 x_46) (* (-  8) x_51) (*  8 x_52) (*  8 x_53) (* (-  8) x_56)))
         (<= 0
          (+  0 (*  8 x_9) (*  8 x_10) (* (-  8) x_11) (* (-  8) x_12) (* (-  24) x_19) (* (-  16) x_20) (* (-  8) x_21) (*  8 x_22) (*  16 x_23) (*  24 x_25) (*  24 x_39) (*  16 x_40) (*  8 x_41) (* (-  16) x_42) (* (-  8) x_44) (* (-  24) x_46) (* (-  8) x_51) (* (-  8) x_52) (*  8 x_53) (*  8 x_56)))
         (<= 0
          (+  0 (*  8 x_9) (*  24 x_10) (*  24 x_11) (*  8 x_12) (* (-  24) x_19) (* (-  48) x_20) (* (-  24) x_21) (* (-  24) x_22) (* (-  48) x_23) (* (-  24) x_25) (*  24 x_39) (*  48 x_40) (*  24 x_41) (*  48 x_42) (*  24 x_44) (*  24 x_46) (* (-  8) x_51) (* (-  24) x_52) (* (-  24) x_53) (* (-  8) x_56)))
         (<= 0
          (+  0 (*  16 x_3) (* (-  32) x_4) (*  16 x_5) (* (-  64) x_13) (*  128 x_15) (* (-  64) x_17) (*  64 x_19) (* (-  128) x_21) (*  64 x_24) (*  32 x_33) (* (-  64) x_34) (*  32 x_35) (* (-  64) x_39) (*  128 x_40) (* (-  64) x_43) (*  16 x_51) (* (-  32) x_52) (*  16 x_54)))
         (<= 0
          (+  0 (*  16 x_3) (* (-  16) x_5) (* (-  64) x_13) (*  64 x_17) (*  64 x_19) (* (-  64) x_24) (*  32 x_33) (* (-  32) x_35) (* (-  64) x_39) (*  64 x_43) (*  16 x_51) (* (-  16) x_54)))
         (<= 0
          (+  0 (*  16 x_3) (*  32 x_4) (*  16 x_5) (* (-  64) x_13) (* (-  128) x_15) (* (-  64) x_17) (*  64 x_19) (*  128 x_21) (*  64 x_24) (*  32 x_33) (*  64 x_34) (*  32 x_35) (* (-  64) x_39) (* (-  128) x_40) (* (-  64) x_43) (*  16 x_51) (*  32 x_52) (*  16 x_54)))
         (<= 0
          (+  0 (*  16 x_6) (* (-  32) x_7) (*  16 x_8) (* (-  32) x_9) (*  64 x_10) (* (-  32) x_11) (* (-  32) x_13) (*  32 x_14) (*  32 x_15) (* (-  32) x_16) (*  80 x_19) (* (-  96) x_20) (* (-  64) x_21) (*  16 x_22) (*  64 x_23) (*  16 x_33) (* (-  32) x_34) (*  16 x_36) (* (-  64) x_39) (*  96 x_40) (*  32 x_41) (* (-  32) x_42) (* (-  32) x_44) (*  16 x_51) (* (-  32) x_52) (*  16 x_53)))
         (<= 0
          (+  0 (*  16 x_6) (* (-  16) x_8) (* (-  32) x_9) (*  32 x_11) (* (-  32) x_13) (*  32 x_16) (*  80 x_19) (* (-  16) x_22) (* (-  64) x_23) (*  16 x_33) (* (-  16) x_36) (* (-  64) x_39) (*  32 x_42) (*  32 x_44) (*  16 x_51) (* (-  16) x_53)))
         (<= 0
          (+  0 (*  16 x_6) (*  32 x_7) (*  16 x_8) (* (-  32) x_9) (* (-  64) x_10) (* (-  32) x_11) (* (-  32) x_13) (* (-  32) x_14) (* (-  32) x_15) (* (-  32) x_16) (*  80 x_19) (*  96 x_20) (*  64 x_21) (*  16 x_22) (*  64 x_23) (*  16 x_33) (*  32 x_34) (*  16 x_36) (* (-  64) x_39) (* (-  96) x_40) (* (-  32) x_41) (* (-  32) x_42) (* (-  32) x_44) (*  16 x_51) (*  32 x_52) (*  16 x_53)))
         (<= 0
          (+  0 (*  32 x_1) (* (-  32) x_2) (* (-  32) x_3) (*  32 x_4) (* (-  128) x_6) (*  128 x_7) (*  128 x_9) (* (-  128) x_10) (*  192 x_13) (* (-  64) x_14) (* (-  128) x_15) (* (-  256) x_19) (*  128 x_20) (*  128 x_21) (* (-  64) x_33) (*  64 x_34) (*  160 x_39) (* (-  128) x_40) (* (-  32) x_41) (* (-  32) x_51) (*  32 x_52)))
         (<= 0
          (+  0 (*  32 x_1) (*  32 x_2) (* (-  32) x_3) (* (-  32) x_4) (* (-  128) x_6) (* (-  128) x_7) (*  128 x_9) (*  128 x_10) (*  192 x_13) (*  64 x_14) (*  128 x_15) (* (-  256) x_19) (* (-  128) x_20) (* (-  128) x_21) (* (-  64) x_33) (* (-  64) x_34) (*  160 x_39) (*  128 x_40) (*  32 x_41) (* (-  32) x_51) (* (-  32) x_52)))
         (<= 0
          (+  0 x_28 (* (-  4) x_29) (*  6 x_30) (* (-  4) x_31) x_32))
         (<= 0
          (+  0 x_28 (* (-  2) x_29) (*  2 x_31) (* (-  1) x_32)))
         (<= 0
          (+  0 x_28 (* (-  2) x_30) x_32))
         (<= 0
          (+  0 x_28 (*  2 x_29) (* (-  2) x_31) (* (-  1) x_32)))
         (<= 0
          (+  0 x_28 (*  4 x_29) (*  6 x_30) (*  4 x_31) x_32)))
         (> 0
          (+  64 (* (-  384) x_1) (*  192 x_3) (*  768 x_6) (* (-  512) x_9) (* (-  768) x_13) (*  768 x_19) (*  192 x_33) (* (-  384) x_39) (*  64 x_51)))    )
  )
))
(check-sat)
(exit)
